n_res = 4;
rc = [ 0, 0, 0, 0 ];
n_tasks = 30;
d = [ 9, 2, 2, 10, 10, 7, 6, 10, 6, 3, 10, 8, 3, 4, 7, 8, 10, 9, 6, 7, 9, 2, 8, 7, 3, 5, 5, 6, 2, 4 ];
rr = [| 0, 0, 0, 0, 0, 0, 0, 0, 0, 0, 0, 0, 0, 0, 0, 0, 0, 0, 0, 0, 0, 0, 0, 0, 0, 0, 0, 0, 0, 0
      | 0, 0, 0, 0, 0, 0, 0, 0, 0, 0, 0, 0, 0, 0, 0, 0, 0, 0, 0, 0, 0, 0, 0, 0, 0, 0, 0, 0, 0, 0
      | 0, 0, 0, 0, 0, 0, 0, 0, 0, 0, 0, 0, 0, 0, 0, 0, 0, 0, 0, 0, 0, 0, 0, 0, 0, 0, 0, 0, 0, 0
      | 0, 0, 0, 0, 0, 0, 0, 0, 0, 0, 0, 0, 0, 0, 0, 0, 0, 0, 0, 0, 0, 0, 0, 0, 0, 0, 0, 0, 0, 0 |];
suc = [ { 24 },
       { 5, 12 },
       { 4, 6, 8 },
       { 7, 14 },
       { 10, 23, 24 },
       { 19 },
       { 9, 17, 22 },
       { 11, 18, 19 },
       { 18, 21 },
       { 26, 29 },
       { 13, 20, 25 },
       { 16, 18 },
       { 15, 21, 22 },
       { 15 },
       { 16, 23, 26 },
       { 24 },
       { 20, 25, 30 },
       { 20, 27 },
       { 22, 26 },
       { 28 },
       { 23, 28 },
       { 30 },
       { 27, 29 },
       { 28 },
       { 29 },
       { 27 },
       { 30 },
       {  },
       {  },
       {  } ];
